100 8
459 280
606 743
773 532
300 675
288 839
598 208
576 280
532 160
382 241
684 804
558 348
361 801
609 428
347 724
528 392
174 281
236 362
622 140
324 719
733 848
630 562
460 322
726 509
672 250
209 517
231 486
618 262
370 770
167 368
931 303
597 274
636 428
528 278
231 648
143 260
127 563
308 461
340 521
154 398
528 323
559 286
658 715
406 631
430 508
647 253
403 306
283 485
814 579
527 733
621 437
700 166
176 424
678 189
247 802
580 238
320 508
746 485
413 869
501 781
449 328
864 414
464 670
798 333
775 421
748 536
490 308
868 318
251 582
241 361
189 98
346 508
705 653
598 415
324 862
87 355
635 146
597 827
745 440
300 484
684 856
317 490
100 171
528 98
142 3
333 522
722 392
664 276
273 352
402 384
653 822
468 639
190 490
112 374
678 540
99 326
230 316
200 537
595 538
413 835
607 513
